
Gurobi 10.0.2 (win64) logging started Wed Jul 10 22:09:47 2024

Set parameter LogFile to value "MTVRPTW2.log"
Set parameter MIPGap to value 0
Gurobi Optimizer version 10.0.2 build v10.0.2rc0 (win64)

CPU model: Intel(R) Core(TM) i7-10875H CPU @ 2.30GHz, instruction set [SSE2|AVX|AVX2]
Thread count: 8 physical cores, 16 logical processors, using up to 16 threads

Optimize a model with 2166 rows, 1216 columns and 9835 nonzeros
Model fingerprint: 0xe9f4be97
Variable types: 96 continuous, 1120 integer (1120 binary)
Coefficient statistics:
  Matrix range     [1e+00, 5e+02]
  Objective range  [7e+00, 3e+02]
  Bounds range     [1e+00, 2e+02]
  RHS range        [1e+00, 6e+02]
Presolve removed 1258 rows and 393 columns
Presolve time: 0.04s
Presolved: 908 rows, 823 columns, 6860 nonzeros
Variable types: 84 continuous, 739 integer (739 binary)

Root relaxation: objective 4.742368e+02, 413 iterations, 0.01 seconds (0.01 work units)

    Nodes    |    Current Node    |     Objective Bounds      |     Work
 Expl Unexpl |  Obj  Depth IntInf | Incumbent    BestBd   Gap | It/Node Time

     0     0  474.23675    0   66          -  474.23675      -     -    0s
H    0     0                    2172.4100000  474.23675  78.2%     -    0s
H    0     0                    2114.7300000  474.23675  77.6%     -    0s
H    0     0                    1853.6200000  474.23675  74.4%     -    0s
H    0     0                    1811.8800000  493.95214  72.7%     -    0s
     0     0  493.95214    0   67 1811.88000  493.95214  72.7%     -    0s
H    0     0                    1538.5600000  493.95214  67.9%     -    0s
H    0     0                    1485.4900000  495.94939  66.6%     -    0s
     0     0  499.77571    0   60 1485.49000  499.77571  66.4%     -    0s
     0     0  499.77571    0   57 1485.49000  499.77571  66.4%     -    0s
     0     0  499.77571    0   51 1485.49000  499.77571  66.4%     -    0s
     0     0  499.77571    0   51 1485.49000  499.77571  66.4%     -    0s
     0     0  499.77571    0   62 1485.49000  499.77571  66.4%     -    0s
     0     0  499.77571    0   47 1485.49000  499.77571  66.4%     -    0s
     0     0  499.77571    0   41 1485.49000  499.77571  66.4%     -    0s
     0     0  583.59286    0   47 1485.49000  583.59286  60.7%     -    0s
     0     0  583.59286    0   39 1485.49000  583.59286  60.7%     -    0s
     0     0  583.59286    0   55 1485.49000  583.59286  60.7%     -    0s
     0     0  583.59286    0   37 1485.49000  583.59286  60.7%     -    0s
     0     0  583.59286    0   23 1485.49000  583.59286  60.7%     -    0s
     0     0  585.49000    0   45 1485.49000  585.49000  60.6%     -    0s
     0     0  585.49000    0   36 1485.49000  585.49000  60.6%     -    0s
     0     0  639.59986    0   44 1485.49000  639.59986  56.9%     -    0s
     0     0  640.13319    0   34 1485.49000  640.13319  56.9%     -    0s
     0     0  640.13319    0   35 1485.49000  640.13319  56.9%     -    0s
     0     0  885.49000    0   25 1485.49000  885.49000  40.4%     -    0s
     0     0  885.49000    0   25 1485.49000  885.49000  40.4%     -    0s
     0     0  885.49000    0   43 1485.49000  885.49000  40.4%     -    0s
     0     0  885.49000    0   39 1485.49000  885.49000  40.4%     -    0s
     0     0  885.49000    0   18 1485.49000  885.49000  40.4%     -    0s
     0     0  885.49000    0   24 1485.49000  885.49000  40.4%     -    0s
     0     0  885.49000    0   15 1485.49000  885.49000  40.4%     -    0s
     0     0  885.49000    0   16 1485.49000  885.49000  40.4%     -    0s
     0     0  885.49000    0   13 1485.49000  885.49000  40.4%     -    0s
     0     0  885.49000    0   16 1485.49000  885.49000  40.4%     -    0s
     0     0  885.71421    0   49 1485.49000  885.71421  40.4%     -    0s
     0     0  885.73833    0   61 1485.49000  885.73833  40.4%     -    0s
     0     0  885.91571    0   61 1485.49000  885.91571  40.4%     -    0s
     0     0  885.91571    0   51 1485.49000  885.91571  40.4%     -    0s
     0     0  885.91571    0   15 1485.49000  885.91571  40.4%     -    0s
     0     0  885.91571    0   14 1485.49000  885.91571  40.4%     -    0s
H    0     0                    1210.7800000  885.91571  26.8%     -    0s
     0     0  939.35645    0   32 1210.78000  939.35645  22.4%     -    0s
     0     0 1185.49000    0   21 1210.78000 1185.49000  2.09%     -    0s
     0     0 1185.49000    0   21 1210.78000 1185.49000  2.09%     -    0s
     0     0 1185.49000    0   21 1210.78000 1185.49000  2.09%     -    0s
     0     0 1185.49000    0    3 1210.78000 1185.49000  2.09%     -    0s
     0     0 1185.49000    0   22 1210.78000 1185.49000  2.09%     -    0s
     0     0 1185.49000    0    9 1210.78000 1185.49000  2.09%     -    0s
     0     0 1185.49000    0   10 1210.78000 1185.49000  2.09%     -    0s
     0     0 1185.49000    0   10 1210.78000 1185.49000  2.09%     -    0s
H    0     0                    1208.2700000 1185.49000  1.89%     -    0s
     0     0 1185.49000    0    3 1208.27000 1185.49000  1.89%     -    0s
     0     0 1185.49000    0    2 1208.27000 1185.49000  1.89%     -    0s
     0     0 1185.49000    0    2 1208.27000 1185.49000  1.89%     -    0s
     0     0 1185.49000    0    4 1208.27000 1185.49000  1.89%     -    0s
     0     0 1185.49000    0    4 1208.27000 1185.49000  1.89%     -    0s
     0     0 1185.49000    0    4 1208.27000 1185.49000  1.89%     -    0s
     0     0 1185.49000    0    8 1208.27000 1185.49000  1.89%     -    0s
     0     0 1185.49000    0   18 1208.27000 1185.49000  1.89%     -    0s
     0     0 1185.49000    0   14 1208.27000 1185.49000  1.89%     -    0s
     0     0 1185.49000    0    3 1208.27000 1185.49000  1.89%     -    0s
     0     0 1185.49000    0   13 1208.27000 1185.49000  1.89%     -    0s
     0     0 1185.49000    0   16 1208.27000 1185.49000  1.89%     -    0s
     0     0 1185.49000    0    2 1208.27000 1185.49000  1.89%     -    0s
     0     0 1185.49000    0    4 1208.27000 1185.49000  1.89%     -    0s
     0     0 1185.49000    0    2 1208.27000 1185.49000  1.89%     -    0s
     0     0 1185.49000    0    8 1208.27000 1185.49000  1.89%     -    0s
     0     0 1185.49000    0    2 1208.27000 1185.49000  1.89%     -    0s
     0     0 1185.49000    0    7 1208.27000 1185.49000  1.89%     -    0s
     0     0 1185.49000    0    6 1208.27000 1185.49000  1.89%     -    0s
     0     0 1185.49000    0    6 1208.27000 1185.49000  1.89%     -    0s
     0     2 1185.49000    0    6 1208.27000 1185.49000  1.89%     -    0s

Cutting planes:
  Learned: 2
  Gomory: 5
  Cover: 166
  Implied bound: 20
  MIR: 31
  StrongCG: 1
  Inf proof: 1
  Zero half: 2
  RLT: 2
  Relax-and-lift: 2

Explored 1749 nodes (19065 simplex iterations) in 1.10 seconds (0.84 work units)
Thread count was 16 (of 16 available processors)

Solution count 8: 1208.27 1210.78 1485.49 ... 2172.41

Optimal solution found (tolerance 0.00e+00)
Best objective 1.208270000000e+03, best bound 1.208270000000e+03, gap 0.0000%
Warning: linear constraint 1578 and linear constraint 1579 have the same name "DisjunctiveLeft_0_1_0"
Warning: default constraint names used to write mps file
Warning: linear constraint 1578 and linear constraint 1579 have the same name "DisjunctiveLeft_0_1_0"
